
Gurobi 8.1.0 (linux64, Python) logging started Fri Nov 29 10:27:47 2019

Academic license - for non-commercial use only

Gurobi 8.1.0 (linux64, Python) logging started Fri Nov 29 10:29:01 2019

Academic license - for non-commercial use only

Gurobi 8.1.0 (linux64, Python) logging started Fri Nov 29 10:30:32 2019

Academic license - for non-commercial use only

Gurobi 8.1.0 (linux64, Python) logging started Fri Nov 29 10:32:54 2019

Academic license - for non-commercial use only

Gurobi 8.1.0 (linux64, Python) logging started Sat Nov 30 12:42:45 2019

Academic license - for non-commercial use only

Gurobi 8.1.0 (linux64, Python) logging started Sat Nov 30 12:43:52 2019

Academic license - for non-commercial use only

Gurobi 8.1.0 (linux64, Python) logging started Sat Nov 30 14:05:00 2019

Academic license - for non-commercial use only

Gurobi 8.1.0 (linux64, Python) logging started Sat Nov 30 14:05:11 2019

Academic license - for non-commercial use only

Gurobi 8.1.0 (linux64, Python) logging started Sat Nov 30 14:05:18 2019

Academic license - for non-commercial use only

Gurobi 8.1.0 (linux64, Python) logging started Sat Nov 30 15:25:24 2019

Academic license - for non-commercial use only

Gurobi 8.1.0 (linux64, Python) logging started Sat Nov 30 15:25:33 2019

Academic license - for non-commercial use only

Gurobi 8.1.0 (linux64, Python) logging started Sat Nov 30 15:25:55 2019

Academic license - for non-commercial use only

Gurobi 8.1.0 (linux64, Python) logging started Sat Nov 30 19:20:22 2019

Academic license - for non-commercial use only

Gurobi 8.1.0 (linux64, Python) logging started Sat Nov 30 19:21:06 2019

Academic license - for non-commercial use only

Gurobi 8.1.0 (linux64, Python) logging started Sat Nov 30 19:21:29 2019

Academic license - for non-commercial use only

Gurobi 8.1.0 (linux64, Python) logging started Sat Nov 30 19:21:44 2019

Academic license - for non-commercial use only

Gurobi 8.1.0 (linux64, Python) logging started Sat Nov 30 19:22:08 2019

Academic license - for non-commercial use only

Gurobi 8.1.0 (linux64, Python) logging started Sat Nov 30 19:22:20 2019

Academic license - for non-commercial use only

Gurobi 8.1.0 (linux64, Python) logging started Sat Nov 30 19:22:35 2019

Academic license - for non-commercial use only

Gurobi 8.1.0 (linux64, Python) logging started Sat Nov 30 19:22:48 2019

Academic license - for non-commercial use only

Gurobi 8.1.0 (linux64, Python) logging started Sat Nov 30 19:23:05 2019

Academic license - for non-commercial use only

Gurobi 8.1.0 (linux64, Python) logging started Sat Nov 30 19:23:16 2019

Academic license - for non-commercial use only

Gurobi 8.1.0 (linux64, Python) logging started Sat Nov 30 19:23:25 2019

Academic license - for non-commercial use only

Gurobi 8.1.0 (linux64, Python) logging started Sat Nov 30 19:23:40 2019

Academic license - for non-commercial use only

Gurobi 8.1.0 (linux64, Python) logging started Sat Nov 30 19:23:57 2019

Academic license - for non-commercial use only

Gurobi 8.1.0 (linux64, Python) logging started Sat Nov 30 19:24:27 2019

Academic license - for non-commercial use only

Gurobi 8.1.0 (linux64, Python) logging started Sat Nov 30 19:24:58 2019

Academic license - for non-commercial use only

Gurobi 8.1.0 (linux64, Python) logging started Sat Nov 30 19:25:07 2019

Academic license - for non-commercial use only

Gurobi 8.1.0 (linux64, Python) logging started Sat Nov 30 19:25:16 2019

Academic license - for non-commercial use only

Gurobi 8.1.0 (linux64, Python) logging started Sat Nov 30 19:25:49 2019

Academic license - for non-commercial use only

Gurobi 8.1.0 (linux64, Python) logging started Sat Nov 30 19:26:30 2019

Academic license - for non-commercial use only

Gurobi 8.1.0 (linux64, Python) logging started Sat Nov 30 19:26:49 2019

Academic license - for non-commercial use only

Gurobi 8.1.0 (linux64, Python) logging started Sat Nov 30 19:27:59 2019

Academic license - for non-commercial use only

Gurobi 8.1.0 (linux64, Python) logging started Sat Nov 30 19:32:48 2019

Academic license - for non-commercial use only

Gurobi 8.1.0 (linux64, Python) logging started Sat Nov 30 19:33:00 2019

Academic license - for non-commercial use only

Gurobi 8.1.0 (linux64, Python) logging started Sat Nov 30 19:33:10 2019

Academic license - for non-commercial use only

Gurobi 8.1.0 (linux64, Python) logging started Sat Nov 30 19:33:14 2019

Academic license - for non-commercial use only

Gurobi 8.1.0 (linux64, Python) logging started Sat Nov 30 19:33:21 2019

Academic license - for non-commercial use only

Gurobi 8.1.0 (linux64, Python) logging started Sat Nov 30 19:34:30 2019

Academic license - for non-commercial use only

Gurobi 8.1.0 (linux64, Python) logging started Sat Nov 30 19:38:53 2019

Academic license - for non-commercial use only

Gurobi 8.1.0 (linux64, Python) logging started Sat Nov 30 19:39:03 2019

Academic license - for non-commercial use only

Gurobi 8.1.0 (linux64, Python) logging started Sat Nov 30 19:39:17 2019

Academic license - for non-commercial use only

Gurobi 8.1.0 (linux64, Python) logging started Sat Nov 30 19:39:36 2019

Academic license - for non-commercial use only

Gurobi 8.1.0 (linux64, Python) logging started Sat Nov 30 19:39:48 2019

Academic license - for non-commercial use only

Gurobi 8.1.0 (linux64, Python) logging started Sat Nov 30 19:40:04 2019

Academic license - for non-commercial use only

Gurobi 8.1.0 (linux64, Python) logging started Sat Nov 30 19:40:15 2019

Academic license - for non-commercial use only

Gurobi 8.1.0 (linux64, Python) logging started Sat Nov 30 19:40:35 2019

Academic license - for non-commercial use only

Gurobi 8.1.0 (linux64, Python) logging started Sat Nov 30 19:41:01 2019

Academic license - for non-commercial use only

Gurobi 8.1.0 (linux64, Python) logging started Sat Nov 30 19:41:30 2019

Academic license - for non-commercial use only

Gurobi 8.1.0 (linux64, Python) logging started Sat Nov 30 19:42:08 2019

Academic license - for non-commercial use only

Gurobi 8.1.0 (linux64, Python) logging started Sat Nov 30 19:42:27 2019

Academic license - for non-commercial use only

Gurobi 8.1.0 (linux64, Python) logging started Sat Nov 30 19:43:46 2019

Academic license - for non-commercial use only

Gurobi 8.1.0 (linux64, Python) logging started Sat Nov 30 19:44:08 2019

Academic license - for non-commercial use only

Gurobi 8.1.0 (linux64, Python) logging started Sat Nov 30 19:44:18 2019

Academic license - for non-commercial use only

Gurobi 8.1.0 (linux64, Python) logging started Sat Nov 30 19:44:29 2019

Academic license - for non-commercial use only

Gurobi 8.1.0 (linux64, Python) logging started Sat Nov 30 19:45:02 2019

Academic license - for non-commercial use only

Gurobi 8.1.0 (linux64, Python) logging started Sat Nov 30 19:45:41 2019

Academic license - for non-commercial use only

Gurobi 8.1.0 (linux64, Python) logging started Sat Nov 30 19:46:11 2019

Academic license - for non-commercial use only

Gurobi 8.1.0 (linux64, Python) logging started Mon Dec 16 15:09:29 2019

Academic license - for non-commercial use only

Gurobi 8.1.0 (linux64, Python) logging started Mon Dec 16 15:10:27 2019

Academic license - for non-commercial use only

Gurobi 8.1.0 (linux64, Python) logging started Mon Dec 16 15:11:21 2019

Academic license - for non-commercial use only

Gurobi 8.1.0 (linux64, Python) logging started Mon Dec 16 15:12:30 2019

Academic license - for non-commercial use only

Gurobi 8.1.0 (linux64, Python) logging started Mon Dec 16 15:13:48 2019

Academic license - for non-commercial use only

Gurobi 8.1.0 (linux64, Python) logging started Mon Dec 16 15:14:09 2019

Academic license - for non-commercial use only

Gurobi 8.1.0 (linux64, Python) logging started Mon Dec 16 15:14:58 2019

Academic license - for non-commercial use only

Gurobi 8.1.0 (linux64, Python) logging started Mon Dec 16 15:21:24 2019

Academic license - for non-commercial use only

Gurobi 8.1.0 (linux64, Python) logging started Wed Dec 18 21:28:59 2019

Academic license - for non-commercial use only

Gurobi 8.1.0 (linux64, Python) logging started Wed Dec 18 21:29:13 2019

Academic license - for non-commercial use only

Gurobi 8.1.0 (linux64, Python) logging started Wed Dec 18 21:29:23 2019

Academic license - for non-commercial use only

Gurobi 8.1.0 (linux64, Python) logging started Sun Dec 29 16:57:45 2019

Academic license - for non-commercial use only

Gurobi 8.1.0 (linux64, Python) logging started Sun Dec 29 17:04:32 2019

Academic license - for non-commercial use only

Gurobi 8.1.0 (linux64, Python) logging started Sun Dec 29 17:04:37 2019

Academic license - for non-commercial use only

Gurobi 8.1.0 (linux64, Python) logging started Sun Dec 29 17:05:48 2019

Academic license - for non-commercial use only

Gurobi 8.1.0 (linux64, Python) logging started Sun Dec 29 17:05:56 2019

Academic license - for non-commercial use only

Gurobi 8.1.0 (linux64, Python) logging started Tue Dec 31 18:30:15 2019

Academic license - for non-commercial use only

Gurobi 8.1.0 (linux64, Python) logging started Tue Dec 31 18:31:05 2019

Academic license - for non-commercial use only

Gurobi 8.1.0 (linux64, Python) logging started Tue Dec 31 20:48:30 2019

Academic license - for non-commercial use only

Gurobi 8.1.0 (linux64, Python) logging started Wed Jan  1 12:57:46 2020

Academic license - for non-commercial use only

Gurobi 8.1.0 (linux64, Python) logging started Wed Jan  1 12:59:09 2020

Academic license - for non-commercial use only

Gurobi 8.1.0 (linux64, Python) logging started Wed Jan  1 13:00:23 2020

Academic license - for non-commercial use only

Gurobi 8.1.0 (linux64, Python) logging started Wed Jan  1 13:02:17 2020

Academic license - for non-commercial use only

Gurobi 8.1.0 (linux64, Python) logging started Wed Jan  1 13:06:29 2020

Academic license - for non-commercial use only

Gurobi 8.1.0 (linux64, Python) logging started Wed Jan  1 13:08:00 2020

Academic license - for non-commercial use only

Gurobi 8.1.0 (linux64, Python) logging started Wed Jan  1 18:29:19 2020

Academic license - for non-commercial use only

Gurobi 8.1.0 (linux64, Python) logging started Wed Jan  1 23:19:49 2020

Academic license - for non-commercial use only

Gurobi 8.1.0 (linux64, Python) logging started Tue Jan 14 12:07:53 2020

Academic license - for non-commercial use only

Gurobi 8.1.0 (linux64, Python) logging started Tue Jan 14 12:08:11 2020

Academic license - for non-commercial use only

Gurobi 8.1.0 (linux64, Python) logging started Tue Jan 14 12:08:44 2020

Academic license - for non-commercial use only

Gurobi 8.1.0 (linux64, Python) logging started Tue Jan 14 12:45:53 2020

Academic license - for non-commercial use only

Gurobi 8.1.0 (linux64, Python) logging started Tue Jan 14 12:46:40 2020

Academic license - for non-commercial use only

Gurobi 8.1.0 (linux64, Python) logging started Tue Jan 14 14:45:07 2020

Academic license - for non-commercial use only

Gurobi 8.1.0 (linux64, Python) logging started Tue Jan 14 14:45:35 2020

Academic license - for non-commercial use only

Gurobi 8.1.0 (linux64, Python) logging started Thu Jan 16 12:19:38 2020

Academic license - for non-commercial use only

Gurobi 8.1.0 (linux64, Python) logging started Thu Jan 30 16:26:41 2020

Academic license - for non-commercial use only

Gurobi 8.1.0 (linux64, Python) logging started Wed Feb  5 14:50:58 2020

Academic license - for non-commercial use only

Gurobi 8.1.0 (linux64, Python) logging started Thu Feb  6 15:08:45 2020

Academic license - for non-commercial use only

Gurobi 8.1.0 (linux64, Python) logging started Thu Feb  6 15:10:50 2020

Academic license - for non-commercial use only
